0 4885.02
2401 4762.95
4802 4669.6
7203 4590.57
9604 4522.29
12005 4464.06
14406 4413.19
16807 4367.59
19208 4324.74
21609 4288.7
24010 4259.66
26411 4231.98
28812 4207.9
31213 4187.05
33614 4167.23
36015 4149.79
38416 4134.72
40817 4121.29
43218 4109.58
45619 4099.93
48020 4091.84
50421 4084.25
52822 4077.43
55223 4072.99
57624 4069
60025 4065.87
62426 4063.16
64827 4060.98
67228 4059.12
69629 4058.08
72030 4057.6
74431 4056.96
76832 4056.36
79233 4056.3
81634 4056.1
84035 4056.03
